NAME: instance_1647
TYPE: TSP
DIMENSION: 20
EDGE_WEIGHT_TYPE: EUC_2D
NODE_COORD_SECTION
0 76.12 33.07
1 32.79 6.40
2 43.59 28.23
3 52.28 75.11
4 46.26 1.26
5 71.05 99.83
6 70.45 80.36
7 26.91 59.53
8 34.04 31.96
9 69.67 57.18
10 50.80 8.52
11 56.82 80.02
12 59.72 30.32
13 11.51 17.65
14 59.29 94.24
15 60.50 48.49
16 47.40 93.11
17 81.64 34.93
18 0.29 78.68
19 60.68 9.76
EOF
